LengthSchedulingHorizon=2465;
nAttributes=2;
SetupCosts=[[0, 0], [2, 2], [2, 2]];
SetupTimes=[[0, 0], [0, 0], [0, 0]];
nMachines=5;
MinCap=[0, 0, 0, 0, 0];
MaxCap=[73, 31, 14, 36, 46];

initState=[1, 2, 2, 2, 1];
nShifts=5;
ShiftStartTimes = [[0, 242, 400, 1359, 2119], [1413, 1459, 1489, 1752, 2461], [0, 0, 1529, 1741, 2100], [201, 511, 674, 1761, 2204], [0, 0, 1459, 1502, 1813]];
ShiftEndTimes = [[0, 366, 1198, 1644, 2247], [1449, 1488, 1593, 2206, 2462], [0, 0, 1677, 1938, 2290], [410, 552, 1232, 1928, 2458], [0, 0, 1493, 1710, 2035]];
nJobs=100;
EligibleMachines = [{5}, {3}, {4, 5}, {1, 3}, {2, 4, 5}, {3, 4}, {3, 4}, {1, 2, 4}, {4}, {2, 3}, {3, 5}, {1, 4}, {4, 5}, {3, 5}, {1, 2}, {2, 4}, {1, 2, 5}, {3, 4}, {1, 3, 4}, {2, 3}, {2, 5}, {1, 2, 3}, {4}, {1, 5}, {5}, {1}, {3, 4, 5}, {3}, {1, 3}, {1}, {2, 3}, {1, 4}, {2, 3, 5}, {5}, {2, 3, 4}, {2}, {1, 3}, {2, 5}, {1, 3}, {1, 3, 4, 5}, {3}, {1}, {3, 5}, {1, 5}, {2, 3}, {3}, {5}, {5}, {1, 2, 5}, {1}, {3}, {2}, {2}, {5}, {2}, {2}, {3, 4, 5}, {2, 5}, {5}, {2, 4}, {5}, {4}, {2}, {2, 5}, {1, 4}, {2, 4}, {5}, {3}, {2, 4}, {1}, {3, 5}, {2}, {5}, {5}, {1, 5}, {1}, {1}, {1}, {3}, {1, 4}, {5}, {2, 3, 5}, {2}, {3}, {1}, {2, 5}, {3, 4, 5}, {2, 4, 5}, {4}, {3, 4}, {4, 5}, {3}, {3}, {2, 4}, {4, 5}, {1, 2}, {1, 2}, {4}, {2}, {3, 5}];
EarliestStart=[169, 256, 86, 113, 203, 268, 264, 179, 12, 142, 123, 214, 101, 47, 122, 233, 154, 107, 174, 155, 47, 144, 265, 56, 36, 134, 47, 9, 211, 107, 269, 248, 217, 36, 112, 158, 258, 272, 273, 244, 248, 86, 110, 50, 64, 42, 214, 20, 56, 208, 70, 88, 184, 249, 138, 219, 1, 255, 197, 2, 95, 65, 112, 2, 185, 200, 31, 125, 53, 153, 226, 136, 261, 110, 81, 101, 233, 41, 82, 249, 181, 58, 38, 171, 60, 46, 127, 28, 43, 164, 252, 110, 23, 258, 157, 96, 38, 103, 209, 247];
LatestEnd=[175, 265, 96, 123, 218, 286, 272, 188, 17, 147, 136, 221, 115, 49, 133, 248, 156, 108, 184, 165, 48, 154, 266, 57, 41, 145, 51, 15, 214, 109, 286, 256, 226, 53, 117, 174, 260, 275, 278, 252, 254, 94, 112, 55, 75, 61, 217, 28, 66, 213, 71, 96, 186, 260, 148, 234, 8, 263, 206, 12, 101, 75, 122, 11, 188, 211, 35, 126, 57, 168, 237, 147, 266, 113, 94, 103, 245, 50, 83, 259, 194, 64, 55, 176, 65, 47, 128, 39, 57, 165, 257, 111, 27, 266, 168, 107, 47, 114, 222, 255];
MinTime=[5, 6, 6, 6, 8, 10, 6, 9, 3, 3, 9, 7, 9, 2, 10, 9, 2, 1, 8, 10, 1, 10, 1, 1, 3, 8, 4, 4, 3, 2, 10, 5, 7, 9, 3, 9, 2, 2, 5, 6, 4, 7, 2, 4, 6, 10, 2, 6, 6, 3, 1, 7, 2, 6, 9, 8, 7, 6, 5, 6, 4, 8, 9, 7, 2, 7, 4, 1, 4, 8, 10, 9, 3, 3, 9, 2, 8, 5, 1, 6, 10, 6, 10, 3, 3, 1, 1, 6, 8, 1, 3, 1, 4, 6, 9, 7, 7, 6, 8, 7];
MaxTime=[8, 6, 7, 6, 9, 10, 10, 9, 3, 5, 9, 9, 9, 6, 10, 9, 2, 3, 8, 10, 9, 10, 4, 2, 10, 10, 8, 5, 7, 7, 10, 5, 7, 10, 6, 10, 7, 2, 7, 6, 5, 10, 8, 5, 10, 10, 3, 6, 6, 3, 10, 9, 4, 6, 9, 8, 8, 10, 5, 6, 8, 9, 10, 7, 10, 7, 9, 8, 10, 10, 10, 10, 8, 10, 9, 6, 10, 5, 2, 10, 10, 10, 10, 8, 10, 6, 6, 8, 10, 9, 3, 10, 8, 10, 10, 10, 8, 7, 8, 8];
JobSize=[1, 3, 2, 2, 2, 3, 5, 1, 5, 4, 4, 2, 1, 3, 1, 2, 3, 2, 5, 2, 4, 3, 3, 1, 3, 2, 4, 3, 5, 4, 4, 5, 5, 2, 5, 2, 3, 1, 1, 4, 2, 1, 3, 3, 2, 1, 4, 4, 4, 5, 4, 4, 3, 3, 5, 1, 1, 4, 2, 3, 4, 2, 3, 4, 1, 4, 4, 3, 2, 4, 1, 1, 2, 2, 5, 5, 4, 4, 3, 5, 2, 2, 5, 2, 1, 2, 3, 2, 4, 2, 2, 5, 4, 1, 2, 4, 3, 1, 4, 1];
Attribute=[1, 2, 2, 2, 2, 2, 2, 2, 2, 2, 1, 2, 1, 1, 1, 1, 1, 2, 1, 1, 2, 2, 2, 1, 1, 2, 1, 1, 1, 1, 1, 2, 2, 1, 2, 2, 1, 2, 1, 2, 1, 2, 1, 1, 2, 2, 2, 1, 2, 1, 2, 1, 1, 1, 1, 2, 1, 2, 2, 1, 2, 2, 1, 2, 2, 2, 1, 1, 1, 1, 1, 2, 2, 2, 2, 2, 1, 1, 2, 2, 2, 1, 1, 1, 1, 1, 2, 2, 1, 1, 2, 2, 1, 2, 2, 2, 1, 2, 1, 1];

upper_bound_integer_objective=3000;
mult_factor_total_runtime=2;
mult_factor_finished_toolate=12;
mult_factor_total_setuptimes=0;
mult_factor_total_setupcosts=3;
running_time_bound=548;
min_duration=1;
max_duration=10;
max_setup_time=0;
max_setup_cost=2;
